[30]
0
1
2
3
4
5
6
7
8
9
10
11
12
13
14
15
16
17
18
19
20
21
22
23
24
25
26
27
28
29
[435]
0,1,12
0,2,35
0,3,41
0,4,69
0,5,61
0,6,42
0,7,83
0,8,34
0,9,45
0,10,69
0,11,17
0,12,25
0,13,61
0,14,76
0,15,55
0,16,64
0,17,38
0,18,81
0,19,53
0,20,75
0,21,54
0,22,39
0,23,18
0,24,87
0,25,35
0,26,41
0,27,23
0,28,35
0,29,84
1,2,18
1,3,19
1,4,14
1,5,82
1,6,93
1,7,71
1,8,55
1,9,39
1,10,87
1,11,25
1,12,86
1,13,44
1,14,28
1,15,69
1,16,77
1,17,95
1,18,11
1,19,26
1,20,25
1,21,94
1,22,88
1,23,64
1,24,36
1,25,24
1,26,78
1,27,49
1,28,50
1,29,86
2,3,35
2,4,81
2,5,48
2,6,57
2,7,80
2,8,4
2,9,39
2,10,84
2,11,55
2,12,13
2,13,34
2,14,48
2,15,7
2,16,90
2,17,58
2,18,24
2,19,49
2,20,88
2,21,77
2,22,46
2,23,65
2,24,31
2,25,26
2,26,15
2,27,57
2,28,70
2,29,89
3,4,58
3,5,59
3,6,85
3,7,96
3,8,76
3,9,55
3,10,84
3,11,50
3,12,38
3,13,17
3,14,25
3,15,74
3,16,86
3,17,21
3,18,31
3,19,41
3,20,59
3,21,28
3,22,47
3,23,65
3,24,36
3,25,21
3,26,13
3,27,52
3,28,70
3,29,81
4,5,25
4,6,39
4,7,47
4,8,55
4,9,86
4,10,51
4,11,85
4,12,26
4,13,44
4,14,68
4,15,87
4,16,99
4,17,28
4,18,37
4,19,245
4,20,26
4,21,54
4,22,20
4,23,86
4,24,54
4,25,35
4,26,16
4,27,24
4,28,78
4,29,89
5,6,47
5,7,78
5,8,36
5,9,14
5,10,86
5,11,54
5,12,26
5,13,14
5,14,56
5,15,84
5,16,78
5,17,20
5,18,38
5,19,20
5,20,50
5,21,2
5,22,4
5,23,66
5,24,3
5,25,25
5,26,14
5,27,56
5,28,74
5,29,85
6,7,88
6,8,67
6,9,35
6,10,86
6,11,54
6,12,45
6,13,26
6,14,35
6,15,67
6,16,79
6,17,55
6,18,91
6,19,16
6,20,25
6,21,74
6,22,38
6,23,19
6,24,97
6,25,15
6,26,36
6,27,51
6,28,45
6,29,56
7,8,1
7,9,57
7,10,58
7,11,29
7,12,34
7,13,76
7,14,55
7,15,64
7,16,25
7,17,36
7,18,14
7,19,55
7,20,46
7,21,30
7,22,24
7,23,16
7,24,34
7,25,28
7,26,69
7,27,17
7,28,85
7,29,86
8,9,91
8,10,59
8,11,68
8,12,45
8,13,84
8,14,76
8,15,94
8,16,18
8,17,39
8,18,50
8,19,47
8,20,89
8,21,48
8,22,57
8,23,69
8,24,58
8,25,47
8,26,85
8,27,66
8,28,40
8,29,54
9,10,95
9,11,86
9,12,57
9,13,38
9,14,19
9,15,57
9,16,65
9,17,76
9,18,90
9,19,44
9,20,16
9,21,24
9,22,48
9,23,59
9,24,87
9,25,45
9,26,66
9,27,50
9,28,84
9,29,96
10,11,25
10,12,34
10,13,16
10,14,55
10,15,94
10,16,79
10,17,58
10,18,37
10,19,18
10,20,89
10,21,14
10,22,39
10,23,11
10,24,76
10,25,85
10,26,24
10,27,18
10,28,69
10,29,47
11,12,50
11,13,99
11,14,47
11,15,57
11,16,37
11,17,18
11,18,69
11,19,74
11,20,89
11,21,48
11,22,34
11,23,16
11,24,51
11,25,63
11,26,43
11,27,82
11,28,11
11,29,26
12,13,92
12,14,46
12,15,24
12,16,3
12,17,19
12,18,57
12,19,68
12,20,69
12,21,51
12,22,43
12,23,65
12,24,14
12,25,26
12,26,98
12,27,77
12,28,89
12,29,85
13,14,71
13,15,96
13,16,55
13,17,14
13,18,39
13,19,57
13,20,85
13,21,76
13,22,2
13,23,86
13,24,44
13,25,35
13,26,26
13,27,84
13,28,86
13,29,44
14,15,49
14,16,67
14,17,87
14,18,78
14,19,92
14,20,18
14,21,88
14,22,4
14,23,5
14,24,68
14,25,30
14,26,88
14,27,44
14,28,66
14,29,15
15,16,44
15,17,56
15,18,65
15,19,15
15,20,74
15,21,29
15,22,64
15,23,53
15,24,41
15,25,56
15,26,25
15,27,27
15,28,89
15,29,1
16,17,25
16,18,36
16,19,42
16,20,11
16,21,76
16,22,25
16,23,54
16,24,4
16,25,69
16,26,28
16,27,80
16,28,18
16,29,10
17,18,58
17,19,94
17,20,6
17,21,4
17,22,26
17,23,85
17,24,14
17,25,48
17,26,57
17,27,46
17,28,11
17,29,16
18,19,14
18,20,15
18,21,29
18,22,87
18,23,75
18,24,46
18,25,31
18,26,86
18,27,64
18,28,35
18,29,16
19,20,28
19,21,17
19,22,89
19,23,71
19,24,36
19,25,25
19,26,14
19,27,8
19,28,77
19,29,80
20,21,52
20,22,25
20,23,34
20,24,78
20,25,57
20,26,15
20,27,86
20,28,91
20,29,86
21,22,54
21,23,58
21,24,45
21,25,84
21,26,26
21,27,25
21,28,64
21,29,12
22,23,41
22,24,54
22,25,38
22,26,44
22,27,66
22,28,15
22,29,14
23,24,73
23,25,61
23,26,55
23,27,44
23,28,96
23,29,88
24,25,44
24,26,53
24,27,65
24,28,11
24,29,85
25,26,29
25,27,17
25,28,95
25,29,83
26,27,21
26,28,15
26,29,89
27,28,27
27,29,83
28,29,15